c A SAT instance generated from a 3-CNF formula that had 14 clauses and 7 variables
p cnf 7 14
-1 5 -3 0
-1 -6 -5 0
-5 1 3 0
-3 7 6 0
-5 7 -4 0
-5 -6 -2 0
-6 1 5 0
1 2 5 0
4 -7 -6 0
3 1 7 0
1 2 5 0
2 -6 -4 0
4 -2 3 0
3 -2 -1 0
